%%%mzn-stat: initTime=0.018323768
%%%mzn-stat: objective=1055
%%%mzn-stat: nodes=14124
%%%mzn-stat: restarts=2
%%%mzn-stat: peakDepth=1187
%%%mzn-stat: solveTime=8.952370405
%%%mzn-stat: variables=1811
%%%mzn-stat: propagators=1461
%%%mzn-stat: failures=10727
%%%mzn-stat: propagations=456103
%%%mzn-stat: nogoods=10727
%%%mzn-stat: AverageConflictSize=39.8452503029738
%%%mzn-stat: NumUnitNogoodsLearned=178
%%%mzn-stat: AverageLearnedNogoodLength=52.17600447469003
%%%mzn-stat: AverageBacktrackAmount=0
%%%mzn-stat: AverageLbd=26.77868928871073
%%%mzn-stat-end
maxleg = 1055;
succ = array1d(1..150,[139, 15, 12, 43, 31, 79, 131, 25, 14, 68, 100, 150, 77, 92, 147, 11, 48, 5, 124, 122, 91, 35, 117, 99, 94, 145, 85, 50, 33, 34, 120, 6, 133, 86, 121, 49, 89, 125, 61, 136, 113, 83, 75, 8, 20, 7, 78, 58, 76, 118, 126, 38, 108, 39, 70, 2, 69, 93, 115, 101, 37, 13, 141, 112, 67, 103, 44, 26, 9, 102, 114, 16, 82, 63, 138, 55, 72, 97, 42, 21, 53, 116, 123, 106, 59, 18, 27, 52, 32, 80, 109, 29, 135, 4, 142, 24, 65, 143, 88, 119, 45, 73, 105, 81, 98, 1, 47, 90, 46, 22, 140, 132, 71, 84, 23, 96, 66, 104, 17, 28, 41, 87, 60, 137, 129, 54, 107, 74, 127, 148, 51, 146, 19, 95, 40, 56, 144, 57, 149, 62, 111, 64, 134, 130, 110, 10, 36, 30, 3, 128]);
% time elapsed: 16.87 s
----------
%%%mzn-stat: initTime=0.018323768
%%%mzn-stat: objective=646
%%%mzn-stat: nodes=17345
%%%mzn-stat: restarts=6
%%%mzn-stat: peakDepth=1187
%%%mzn-stat: solveTime=9.329917887
%%%mzn-stat: variables=1811
%%%mzn-stat: propagators=1461
%%%mzn-stat: failures=10912
%%%mzn-stat: propagations=471918
%%%mzn-stat: nogoods=10912
%%%mzn-stat: AverageConflictSize=40.207569648093845
%%%mzn-stat: NumUnitNogoodsLearned=178
%%%mzn-stat: AverageLearnedNogoodLength=52.82303885630498
%%%mzn-stat: AverageBacktrackAmount=0
%%%mzn-stat: AverageLbd=27.206469941348974
%%%mzn-stat-end
maxleg = 646;
succ = array1d(1..150,[139, 15, 12, 52, 57, 79, 131, 21, 14, 68, 118, 150, 77, 138, 128, 11, 48, 5, 33, 122, 91, 71, 117, 99, 94, 145, 85, 50, 69, 34, 120, 6, 133, 86, 110, 49, 89, 125, 61, 116, 114, 83, 75, 8, 20, 7, 78, 58, 76, 124, 126, 38, 108, 39, 70, 13, 92, 93, 115, 101, 37, 100, 141, 112, 67, 103, 44, 26, 9, 102, 84, 16, 2, 63, 25, 55, 72, 97, 42, 31, 53, 136, 123, 106, 59, 18, 27, 65, 32, 80, 109, 29, 135, 4, 142, 24, 96, 143, 88, 119, 45, 73, 105, 81, 98, 1, 47, 90, 46, 22, 140, 132, 121, 113, 23, 82, 66, 104, 17, 28, 35, 87, 60, 137, 129, 54, 107, 74, 127, 148, 51, 146, 30, 95, 40, 56, 144, 43, 149, 62, 111, 64, 134, 130, 41, 10, 36, 19, 3, 147]);
% time elapsed: 17.23 s
----------
%%%mzn-stat: initTime=0.018323768
%%%mzn-stat: objective=401
%%%mzn-stat: nodes=20815
%%%mzn-stat: restarts=8
%%%mzn-stat: peakDepth=1187
%%%mzn-stat: solveTime=10.389461134
%%%mzn-stat: variables=1811
%%%mzn-stat: propagators=1461
%%%mzn-stat: failures=12506
%%%mzn-stat: propagations=519648
%%%mzn-stat: nogoods=12506
%%%mzn-stat: AverageConflictSize=37.14065248680633
%%%mzn-stat: NumUnitNogoodsLearned=178
%%%mzn-stat: AverageLearnedNogoodLength=51.362146169838475
%%%mzn-stat: AverageBacktrackAmount=0
%%%mzn-stat: AverageLbd=25.815688469534624
%%%mzn-stat-end
maxleg = 401;
succ = array1d(1..150,[84, 15, 12, 52, 57, 79, 131, 21, 14, 132, 118, 150, 77, 138, 128, 11, 48, 5, 33, 122, 91, 41, 117, 99, 94, 145, 85, 50, 69, 34, 120, 6, 133, 86, 68, 49, 32, 125, 61, 116, 71, 83, 75, 8, 20, 7, 78, 58, 76, 124, 126, 38, 108, 39, 70, 13, 92, 93, 115, 89, 37, 100, 141, 146, 67, 101, 44, 112, 9, 102, 121, 16, 2, 63, 25, 55, 72, 97, 42, 31, 53, 136, 123, 114, 59, 18, 27, 65, 139, 80, 109, 29, 135, 4, 142, 24, 96, 103, 88, 119, 45, 73, 105, 81, 23, 1, 47, 90, 46, 22, 140, 143, 110, 113, 149, 82, 66, 104, 17, 28, 35, 87, 60, 137, 129, 54, 107, 74, 127, 148, 51, 98, 30, 95, 40, 56, 144, 43, 26, 62, 111, 64, 134, 130, 106, 10, 36, 19, 3, 147]);
% time elapsed: 18.30 s
----------
%%%mzn-stat: initTime=0.018323768
%%%mzn-stat: objective=179
%%%mzn-stat: nodes=23156
%%%mzn-stat: restarts=8
%%%mzn-stat: peakDepth=1267
%%%mzn-stat: solveTime=10.715407551
%%%mzn-stat: variables=1811
%%%mzn-stat: propagators=1461
%%%mzn-stat: failures=12859
%%%mzn-stat: propagations=534753
%%%mzn-stat: nogoods=12859
%%%mzn-stat: AverageConflictSize=37.18765067268061
%%%mzn-stat: NumUnitNogoodsLearned=178
%%%mzn-stat: AverageLearnedNogoodLength=51.29823469943231
%%%mzn-stat: AverageBacktrackAmount=0
%%%mzn-stat: AverageLbd=25.79018586204215
%%%mzn-stat-end
maxleg = 179;
succ = array1d(1..150,[26, 15, 12, 52, 57, 60, 115, 21, 14, 132, 119, 150, 74, 138, 147, 11, 48, 5, 33, 129, 80, 121, 117, 99, 94, 139, 85, 50, 69, 34, 120, 6, 133, 86, 68, 71, 32, 125, 91, 116, 114, 83, 75, 8, 20, 131, 78, 58, 76, 124, 126, 38, 108, 61, 70, 13, 92, 93, 149, 89, 37, 100, 141, 146, 67, 101, 44, 142, 9, 102, 84, 16, 55, 63, 25, 36, 72, 97, 42, 31, 53, 136, 123, 106, 59, 18, 27, 65, 79, 39, 109, 29, 135, 4, 98, 24, 96, 103, 88, 118, 45, 2, 105, 81, 23, 1, 47, 90, 7, 22, 140, 143, 41, 110, 122, 82, 66, 104, 17, 28, 35, 87, 77, 137, 46, 54, 107, 73, 127, 148, 51, 112, 30, 95, 40, 56, 144, 43, 145, 62, 111, 64, 134, 130, 113, 10, 49, 19, 3, 128]);
% time elapsed: 18.63 s
----------
==========
% time elapsed: 18.63 s
%%%mzn-stat: initTime=0.018323768
%%%mzn-stat: objective=179
%%%mzn-stat: nodes=23156
%%%mzn-stat: restarts=8
%%%mzn-stat: peakDepth=1267
%%%mzn-stat: solveTime=10.715413579
%%%mzn-stat: variables=1811
%%%mzn-stat: propagators=1461
%%%mzn-stat: failures=12859
%%%mzn-stat: propagations=534753
%%%mzn-stat: nogoods=12859
%%%mzn-stat: AverageConflictSize=37.18765067268061
%%%mzn-stat: NumUnitNogoodsLearned=178
%%%mzn-stat: AverageLearnedNogoodLength=51.29823469943231
%%%mzn-stat: AverageBacktrackAmount=0
%%%mzn-stat: AverageLbd=25.79018586204215
%%%mzn-stat-end
